networks/zoo_25_32/zoo_25_32-lower.sol
<?xml version = "1.0" encoding="UTF-8" standalone="yes"?>
<CPLEXSolution version="1.2">
 <header
   problemName="networks/zoo_25_32/zoo_25_32-lower.lp"
   solutionName="incumbent"
   solutionIndex="-1"
   objectiveValue="10"
   solutionTypeValue="3"
   solutionTypeString="primal"
   solutionStatusValue="101"
   solutionStatusString="integer optimal solution"
   solutionMethodString="mip"
   primalFeasible="1"
   dualFeasible="1"
   MIPNodes="0"
   MIPIterations="33"
   writeLevel="3"/>
 <quality
   epInt="1.0000000000000001e-05"
   epRHS="9.9999999999999995e-07"
   maxIntInfeas="0"
   maxPrimalInfeas="0"
   maxX="1"
   maxSlack="1"/>
 <variables>
  <variable name="Y(2,7)" index="21" value="1"/>
  <variable name="Y(4,4)" index="54" value="1"/>
  <variable name="Y(13,9)" index="221" value="1"/>
  <variable name="Y(14,6)" index="236" value="1"/>
  <variable name="Y(18,5)" index="307" value="1"/>
  <variable name="Y(21,10)" index="366" value="1"/>
  <variable name="Y(24,6)" index="416" value="1"/>
  <variable name="Y(25,11)" index="439" value="1"/>
  <variable name="Y(30,8)" index="526" value="1"/>
  <variable name="Y(32,12)" index="566" value="1"/>
  <variable name="X(4,6,2)" index="577" value="1"/>
  <variable name="X(4,17,4)" index="611" value="1"/>
  <variable name="X(5,6,4)" index="643" value="1"/>
  <variable name="X(5,18,18)" index="689" value="1"/>
  <variable name="X(6,4,4)" index="707" value="1"/>
  <variable name="X(6,5,18)" index="753" value="1"/>
  <variable name="X(6,7,2)" index="769" value="1"/>
  <variable name="X(6,8,13)" index="812" value="1"/>
  <variable name="X(6,10,14)" index="845" value="1"/>
  <variable name="X(6,19,24)" index="887" value="1"/>
  <variable name="X(7,20,2)" index="897" value="1"/>
  <variable name="X(8,6,18)" index="945" value="1"/>
  <variable name="X(8,9,13)" index="972" value="1"/>
  <variable name="X(8,10,21)" index="1012" value="1"/>
  <variable name="X(8,11,25)" index="1048" value="1"/>
  <variable name="X(8,21,30)" index="1085" value="1"/>
  <variable name="X(9,22,13)" index="1100" value="1"/>
  <variable name="X(10,6,24)" index="1143" value="1"/>
  <variable name="X(10,8,25)" index="1176" value="1"/>
  <variable name="X(10,23,21)" index="1204" value="1"/>
  <variable name="X(11,8,30)" index="1245" value="1"/>
  <variable name="X(11,12,32)" index="1279" value="1"/>
  <variable name="X(11,24,25)" index="1304" value="1"/>
  <variable name="X(12,25,32)" index="1343" value="1"/>
 </variables>
</CPLEXSolution>
